3 3 2
30 0 25 2 32 0 30 1 44 2 23 0 3 2 4 1 31 2 8 1 25 0 13 1 23 0 27 1 43 2 47 0 19 2 7 0 49 1 31 0 35 2 10 1 42 0 34 1 7 2 49 0 48 1 13 2 7 0 5 2 9 
30 1 26 0 1 1 38 2 1 1 41 0 41 2 10 1 35 2 24 0 21 1 40 2 46 1 41 2 31 0 41 2 9 1 20 2 8 0 41 1 2 0 35 2 29 1 37 2 38 0 33 2 3 0 32 2 10 0 23 2 27 
30 0 18 1 39 0 12 1 24 0 1 2 1 0 18 2 45 0 24 1 19 2 37 1 49 0 46 1 43 0 25 2 34 0 15 2 20 0 8 1 16 0 9 2 17 0 5 1 14 2 30 1 10 2 8 1 7 0 6 1 47 

-------------
